\ENCODING=ISO-8859-1
\Problem name: ilog.cplex

Maximize
 obj: 722 x(0)#0 + 538 x(1)#1 + 562 x(2)#2 + 586 x(3)#3 + 955 x(4)#4
      + 989 x(5)#5 + 712 x(6)#6 + 1073 x(7)#7 + 483 x(8)#8 + 750 x(9)#9
      + 762 x(10)#10 + 704 x(11)#11 + 866 x(12)#12 + 781 x(13)#13
      + 592 x(14)#14 + 826 x(15)#15 + 850 x(16)#16 + 762 x(17)#17
      + 873 x(18)#18 + 1236 x(19)#19 + 721 x(20)#20 + 729 x(21)#21
      + 875 x(22)#22 + 645 x(23)#23 + 712 x(24)#24 + 892 x(25)#25
      + 946 x(26)#26 + 734 x(27)#27 + 1072 x(28)#28 + 761 x(29)#29
      + 680 x(30)#30 + 1157 x(31)#31 + 697 x(32)#32 + 880 x(33)#33
      + 976 x(34)#34 + 896 x(35)#35 + 647 x(36)#36 + 698 x(37)#37
      + 665 x(38)#38 + 815 x(39)#39 + 919 x(40)#40 + 759 x(41)#41
      + 662 x(42)#42 + 379 x(43)#43 + 469 x(44)#44 + 1009 x(45)#45
      + 612 x(46)#46 + 689 x(47)#47 + 764 x(48)#48 + 1020 x(49)#49
      + 903 x(50)#50 + 545 x(51)#51 + 483 x(52)#52 + 994 x(53)#53
      + 1009 x(54)#54 + 825 x(55)#55 + 831 x(56)#56 + 461 x(57)#57
      + 1166 x(58)#58 + 323 x(59)#59 + 801 x(60)#60 + 762 x(61)#61
      + 970 x(62)#62 + 835 x(63)#63 + 804 x(64)#64 + 836 x(65)#65
      + 512 x(66)#66 + 1037 x(67)#67 + 702 x(68)#68 + 793 x(69)#69
      + 948 x(70)#70 + 811 x(71)#71 + 1237 x(72)#72 + 685 x(73)#73
      + 532 x(74)#74 + 421 x(75)#75 + 932 x(76)#76 + 414 x(77)#77
      + 513 x(78)#78 + 647 x(79)#79 + 988 x(80)#80 + 623 x(81)#81
      + 803 x(82)#82 + 885 x(83)#83 + 743 x(84)#84 + 895 x(85)#85
      + 444 x(86)#86 + 937 x(87)#87 + 820 x(88)#88 + 567 x(89)#89
      + 881 x(90)#90 + 896 x(91)#91 + 624 x(92)#92 + 623 x(93)#93
      + 768 x(94)#94 + 814 x(95)#95 + 958 x(96)#96 + 666 x(97)#97
      + 843 x(98)#98 + 564 x(99)#99 + 908 x(100)#100 + 936 x(101)#101
      + 466 x(102)#102 + 951 x(103)#103 + 911 x(104)#104 + 676 x(105)#105
      + 923 x(106)#106 + 798 x(107)#107 + 1040 x(108)#108 + 734 x(109)#109
      + 548 x(110)#110 + 621 x(111)#111 + 961 x(112)#112 + 662 x(113)#113
      + 775 x(114)#114 + 872 x(115)#115 + 843 x(116)#116 + 709 x(117)#117
      + 449 x(118)#118 + 762 x(119)#119 + 801 x(120)#120 + 647 x(121)#121
      + 299 x(122)#122 + 1015 x(123)#123 + 796 x(124)#124 + 586 x(125)#125
      + 767 x(126)#126 + 447 x(127)#127 + 558 x(128)#128 + 817 x(129)#129
      + 1021 x(130)#130 + 1078 x(131)#131 + 591 x(132)#132 + 681 x(133)#133
      + 426 x(134)#134 + 1072 x(135)#135 + 701 x(136)#136 + 483 x(137)#137
      + 433 x(138)#138 + 668 x(139)#139 + 705 x(140)#140 + 1095 x(141)#141
      + 948 x(142)#142 + 735 x(143)#143 + 884 x(144)#144 + 819 x(145)#145
      + 787 x(146)#146 + 823 x(147)#147 + 871 x(148)#148 + 594 x(149)#149
      + 902 x(150)#150 + 1005 x(151)#151 + 846 x(152)#152 + 791 x(153)#153
      + 911 x(154)#154 + 643 x(155)#155 + 637 x(156)#156 + 519 x(157)#157
      + 734 x(158)#158 + 592 x(159)#159 + 615 x(160)#160 + 1007 x(161)#161
      + 502 x(162)#162 + 1048 x(163)#163 + 522 x(164)#164 + 955 x(165)#165
      + 733 x(166)#166 + 346 x(167)#167 + 822 x(168)#168 + 474 x(169)#169
      + 630 x(170)#170 + 1000 x(171)#171 + 595 x(172)#172 + 648 x(173)#173
      + 556 x(174)#174 + 652 x(175)#175 + 808 x(176)#176 + 972 x(177)#177
      + 758 x(178)#178 + 641 x(179)#179 + 653 x(180)#180 + 911 x(181)#181
      + 707 x(182)#182 + 831 x(183)#183 + 921 x(184)#184 + 934 x(185)#185
      + 822 x(186)#186 + 826 x(187)#187 + 517 x(188)#188 + 611 x(189)#189
      + 783 x(190)#190 + 736 x(191)#191 + 764 x(192)#192 + 868 x(193)#193
      + 1077 x(194)#194 + 647 x(195)#195 + 546 x(196)#196 + 680 x(197)#197
      + 725 x(198)#198 + 454 x(199)#199 + 464 x(200)#200 + 601 x(201)#201
      + 1056 x(202)#202 + 694 x(203)#203 + 803 x(204)#204 + 1030 x(205)#205
      + 727 x(206)#206 + 851 x(207)#207 + 892 x(208)#208 + 690 x(209)#209
      + 542 x(210)#210 + 893 x(211)#211 + 890 x(212)#212 + 801 x(213)#213
      + 983 x(214)#214 + 479 x(215)#215 + 851 x(216)#216 + 307 x(217)#217
      + 373 x(218)#218 + 784 x(219)#219 + 363 x(220)#220 + 751 x(221)#221
      + 584 x(222)#222 + 1012 x(223)#223 + 795 x(224)#224 + 988 x(225)#225
      + 602 x(226)#226 + 993 x(227)#227 + 789 x(228)#228 + 815 x(229)#229
      + 840 x(230)#230 + 929 x(231)#231 + 704 x(232)#232 + 778 x(233)#233
      + 669 x(234)#234 + 712 x(235)#235 + 924 x(236)#236 + 728 x(237)#237
      + 418 x(238)#238 + 895 x(239)#239 + 459 x(240)#240 + 887 x(241)#241
      + 543 x(242)#242 + 734 x(243)#243 + 531 x(244)#244 + 748 x(245)#245
      + 631 x(246)#246 + 785 x(247)#247 + 815 x(248)#248 + 910 x(249)#249
Subject To
 c1: 132 x(0)#0 + 792 x(1)#1 + 214 x(2)#2 + 266 x(3)#3 + 529 x(4)#4
     + 891 x(5)#5 + 280 x(6)#6 + 851 x(7)#7 + 873 x(8)#8 + 229 x(9)#9
     + 303 x(10)#10 + 277 x(11)#11 + 741 x(12)#12 + 50 x(13)#13 + 23 x(14)#14
     + 182 x(15)#15 + 270 x(16)#16 + 287 x(17)#17 + 710 x(18)#18 + 534 x(19)#19
     + 28 x(20)#20 + 712 x(21)#21 + 753 x(22)#22 + 598 x(23)#23 + 882 x(24)#24
     + 808 x(25)#25 + 631 x(26)#26 + 698 x(27)#27 + 688 x(28)#28 + 339 x(29)#29
     + 440 x(30)#30 + 989 x(31)#31 + 878 x(32)#32 + 749 x(33)#33 + 171 x(34)#34
     + 657 x(35)#35 + 872 x(36)#36 + 369 x(37)#37 + 18 x(38)#38 + 700 x(39)#39
     + 366 x(40)#40 + 233 x(41)#41 + 791 x(42)#42 + 177 x(43)#43 + 673 x(44)#44
     + 601 x(45)#45 + 282 x(46)#46 + 435 x(47)#47 + 157 x(48)#48 + 106 x(49)#49
     + 505 x(50)#50 + 2 x(51)#51 + 408 x(52)#52 + 711 x(53)#53 + 854 x(54)#54
     + 547 x(55)#55 + 735 x(56)#56 + 25 x(57)#57 + 840 x(58)#58 + 9 x(59)#59
     + 827 x(60)#60 + 595 x(61)#61 + 425 x(62)#62 + 750 x(63)#63 + 526 x(64)#64
     + 829 x(65)#65 + 530 x(66)#66 + 424 x(67)#67 + 432 x(68)#68 + 153 x(69)#69
     + 529 x(70)#70 + 835 x(71)#71 + 912 x(72)#72 + 662 x(73)#73 + 357 x(74)#74
     + 10 x(75)#75 + 795 x(76)#76 + 440 x(77)#77 + 216 x(78)#78 + 501 x(79)#79
     + 373 x(80)#80 + 460 x(81)#81 + 194 x(82)#82 + 634 x(83)#83 + 618 x(84)#84
     + 956 x(85)#85 + 316 x(86)#86 + 19 x(87)#87 + 316 x(88)#88 + 416 x(89)#89
     + 267 x(90)#90 + 723 x(91)#91 + 626 x(92)#92 + 982 x(93)#93 + 617 x(94)#94
     + 192 x(95)#95 + 181 x(96)#96 + 127 x(97)#97 + 859 x(98)#98 + 407 x(99)#99
     + 202 x(100)#100 + 65 x(101)#101 + 92 x(102)#102 + 898 x(103)#103
     + 918 x(104)#104 + 788 x(105)#105 + 444 x(106)#106 + 554 x(107)#107
     + 156 x(108)#108 + 470 x(109)#109 + 32 x(110)#110 + 397 x(111)#111
     + 672 x(112)#112 + 604 x(113)#113 + 360 x(114)#114 + 949 x(115)#115
     + 569 x(116)#116 + 7 x(117)#117 + 11 x(118)#118 + 375 x(119)#119
     + 993 x(120)#120 + 722 x(121)#121 + 219 x(122)#122 + 910 x(123)#123
     + 668 x(124)#124 + 221 x(125)#125 + 360 x(126)#126 + 667 x(127)#127
     + 169 x(128)#128 + 291 x(129)#129 + 989 x(130)#130 + 805 x(131)#131
     + 244 x(132)#132 + 100 x(133)#133 + 404 x(134)#134 + 504 x(135)#135
     + 712 x(136)#136 + 434 x(137)#137 + 218 x(138)#138 + 407 x(139)#139
     + 341 x(140)#140 + 531 x(141)#141 + 747 x(142)#142 + 273 x(143)#143
     + 420 x(144)#144 + 347 x(145)#145 + 84 x(146)#146 + 293 x(147)#147
     + 478 x(148)#148 + 823 x(149)#149 + 690 x(150)#150 + 485 x(151)#151
     + 822 x(152)#152 + 81 x(153)#153 + 494 x(154)#154 + 236 x(155)#155
     + 842 x(156)#156 + 271 x(157)#157 + 413 x(158)#158 + 502 x(159)#159
     + 508 x(160)#160 + 522 x(161)#161 + 249 x(162)#162 + 876 x(163)#163
     + 464 x(164)#164 + 951 x(165)#165 + 273 x(166)#166 + 244 x(167)#167
     + 310 x(168)#168 + 440 x(169)#169 + 576 x(170)#170 + 299 x(171)#171
     + 309 x(172)#172 + 96 x(173)#173 + 329 x(174)#174 + 98 x(175)#175
     + 747 x(176)#176 + 976 x(177)#177 + 942 x(178)#178 + 137 x(179)#179
     + 399 x(180)#180 + 764 x(181)#181 + 219 x(182)#182 + 430 x(183)#183
     + 547 x(184)#184 + 573 x(185)#185 + 925 x(186)#186 + 955 x(187)#187
     + 642 x(188)#188 + 652 x(189)#189 + 649 x(190)#190 + 467 x(191)#191
     + 133 x(192)#192 + 36 x(193)#193 + 230 x(194)#194 + 307 x(195)#195
     + 533 x(196)#196 + 412 x(197)#197 + 386 x(198)#198 + 688 x(199)#199
     + 184 x(200)#200 + 199 x(201)#201 + 750 x(202)#202 + 548 x(203)#203
     + 556 x(204)#204 + 340 x(205)#205 + 89 x(206)#206 + 512 x(207)#207
     + 701 x(208)#208 + 636 x(209)#209 + 309 x(210)#210 + 544 x(211)#211
     + 926 x(212)#212 + 359 x(213)#213 + 107 x(214)#214 + 498 x(215)#215
     + 368 x(216)#216 + 133 x(217)#217 + 303 x(218)#218 + 452 x(219)#219
     + 102 x(220)#220 + 357 x(221)#221 + 588 x(222)#222 + 840 x(223)#223
     + 205 x(224)#224 + 63 x(225)#225 + 557 x(226)#226 + 537 x(227)#227
     + 500 x(228)#228 + 747 x(229)#229 + 80 x(230)#230 + 378 x(231)#231
     + 263 x(232)#232 + 886 x(233)#233 + 163 x(234)#234 + 603 x(235)#235
     + 418 x(236)#236 + 304 x(237)#237 + 988 x(238)#238 + 899 x(239)#239
     + 16 x(240)#240 + 486 x(241)#241 + 522 x(242)#242 + 940 x(243)#243
     + 258 x(244)#244 + 71 x(245)#245 + 517 x(246)#246 + 489 x(247)#247
     + 406 x(248)#248 + 177 x(249)#249 <= 29461
 c2: 222 x(0)#0 + 472 x(1)#1 + 557 x(2)#2 + 546 x(3)#3 + 397 x(4)#4
     + 879 x(5)#5 + 570 x(6)#6 + 694 x(7)#7 + 46 x(8)#8 + 208 x(9)#9
     + 947 x(10)#10 + 851 x(11)#11 + 571 x(12)#12 + 836 x(13)#13 + 161 x(14)#14
     + 229 x(15)#15 + 273 x(16)#16 + 200 x(17)#17 + 768 x(18)#18 + 963 x(19)#19
     + 866 x(20)#20 + 619 x(21)#21 + 654 x(22)#22 + 470 x(23)#23 + 949 x(24)#24
     + 339 x(25)#25 + 667 x(26)#26 + 765 x(27)#27 + 719 x(28)#28 + 643 x(29)#29
     + 772 x(30)#30 + 210 x(31)#31 + 767 x(32)#32 + 813 x(33)#33 + 719 x(34)#34
     + 777 x(35)#35 + 821 x(36)#36 + 278 x(37)#37 + 766 x(38)#38 + 494 x(39)#39
     + 617 x(40)#40 + 246 x(41)#41 + 300 x(42)#42 + 324 x(43)#43 + 187 x(44)#44
     + 556 x(45)#45 + 416 x(46)#46 + 205 x(47)#47 + 797 x(48)#48 + 740 x(49)#49
     + 85 x(50)#50 + 997 x(51)#51 + 442 x(52)#52 + 8 x(53)#53 + 261 x(54)#54
     + 549 x(55)#55 + 221 x(56)#56 + 119 x(57)#57 + 961 x(58)#58 + 472 x(59)#59
     + 866 x(60)#60 + 479 x(61)#61 + 730 x(62)#62 + 519 x(63)#63 + 757 x(64)#64
     + 404 x(65)#65 + 68 x(66)#66 + 781 x(67)#67 + 788 x(68)#68 + 14 x(69)#69
     + 16 x(70)#70 + 121 x(71)#71 + 845 x(72)#72 + 940 x(73)#73 + 53 x(74)#74
     + 95 x(75)#75 + 671 x(76)#76 + 11 x(77)#77 + 555 x(78)#78 + 646 x(79)#79
     + 722 x(80)#80 + 213 x(81)#81 + 152 x(82)#82 + 183 x(83)#83 + 317 x(84)#84
     + 609 x(85)#85 + 639 x(86)#86 + 538 x(87)#87 + 699 x(88)#88 + 246 x(89)#89
     + 788 x(90)#90 + 625 x(91)#91 + 525 x(92)#92 + 423 x(93)#93 + 768 x(94)#94
     + 641 x(95)#95 + 806 x(96)#96 + 301 x(97)#97 + 924 x(98)#98 + 683 x(99)#99
     + 105 x(100)#100 + 504 x(101)#101 + 768 x(102)#102 + 943 x(103)#103
     + 643 x(104)#104 + 939 x(105)#105 + 240 x(106)#106 + 867 x(107)#107
     + 880 x(108)#108 + 418 x(109)#109 + 259 x(110)#110 + 95 x(111)#111
     + 990 x(112)#112 + 668 x(113)#113 + 827 x(114)#114 + 232 x(115)#115
     + 971 x(116)#116 + 248 x(117)#117 + 579 x(118)#118 + 198 x(119)#119
     + 775 x(120)#120 + 49 x(121)#121 + 101 x(122)#122 + 823 x(123)#123
     + 841 x(124)#124 + 178 x(125)#125 + 295 x(126)#126 + 199 x(127)#127
     + 27 x(128)#128 + 848 x(129)#129 + 680 x(130)#130 + 549 x(131)#131
     + 693 x(132)#132 + 138 x(133)#133 + 390 x(134)#134 + 719 x(135)#135
     + 883 x(136)#136 + 17 x(137)#137 + 501 x(138)#138 + 441 x(139)#139
     + 317 x(140)#140 + 431 x(141)#141 + 430 x(142)#142 + 720 x(143)#143
     + 346 x(144)#144 + 817 x(145)#145 + 270 x(146)#146 + 561 x(147)#147
     + 531 x(148)#148 + 652 x(149)#149 + 330 x(150)#150 + 680 x(151)#151
     + 337 x(152)#152 + 216 x(153)#153 + 227 x(154)#154 + 602 x(155)#155
     + 142 x(156)#156 + 655 x(157)#157 + 173 x(158)#158 + 833 x(159)#159
     + 28 x(160)#160 + 821 x(161)#161 + 799 x(162)#162 + 843 x(163)#163
     + 352 x(164)#164 + 53 x(165)#165 + 706 x(166)#166 + 153 x(167)#167
     + 236 x(168)#168 + 239 x(169)#169 + 546 x(170)#170 + 16 x(171)#171
     + 831 x(172)#172 + 219 x(173)#173 + 662 x(174)#174 + 634 x(175)#175
     + 797 x(176)#176 + 660 x(177)#177 + 247 x(178)#178 + 450 x(179)#179
     + 7 x(180)#180 + 596 x(181)#181 + 522 x(182)#182 + 81 x(183)#183
     + 536 x(184)#184 + 492 x(185)#185 + 494 x(186)#186 + 131 x(187)#187
     + 868 x(188)#188 + 512 x(189)#189 + 724 x(190)#190 + 968 x(191)#191
     + 680 x(192)#192 + 516 x(193)#193 + 817 x(194)#194 + 428 x(195)#195
     + 530 x(196)#196 + 361 x(197)#197 + 229 x(198)#198 + 806 x(199)#199
     + 335 x(200)#200 + 101 x(201)#201 + 624 x(202)#202 + 265 x(203)#203
     + 454 x(204)#204 + 390 x(205)#205 + 466 x(206)#206 + 340 x(207)#207
     + 848 x(208)#208 + 861 x(209)#209 + 64 x(210)#210 + 881 x(211)#211
     + 284 x(212)#212 + 762 x(213)#213 + 781 x(214)#214 + 352 x(215)#215
     + 557 x(216)#216 + 51 x(217)#217 + 70 x(218)#218 + 281 x(219)#219
     + 338 x(220)#220 + 844 x(221)#221 + 955 x(222)#222 + 580 x(223)#223
     + 352 x(224)#224 + 893 x(225)#225 + 342 x(226)#226 + 872 x(227)#227
     + 554 x(228)#228 + 382 x(229)#229 + 925 x(230)#230 + 253 x(231)#231
     + 844 x(232)#232 + 619 x(233)#233 + 824 x(234)#234 + 491 x(235)#235
     + 562 x(236)#236 + 832 x(237)#237 + 346 x(238)#238 + 287 x(239)#239
     + 499 x(240)#240 + 907 x(241)#241 + 863 x(242)#242 + 704 x(243)#243
     + 365 x(244)#244 + 876 x(245)#245 + 186 x(246)#246 + 229 x(247)#247
     + 543 x(248)#248 + 822 x(249)#249 <= 32100
 c3: 731 x(0)#0 + 557 x(1)#1 + 753 x(2)#2 + 26 x(3)#3 + 330 x(4)#4 + 428 x(5)#5
     + 212 x(6)#6 + 735 x(7)#7 + 518 x(8)#8 + 144 x(9)#9 + 401 x(10)#10
     + 412 x(11)#11 + 452 x(12)#12 + 87 x(13)#13 + 458 x(14)#14 + 473 x(15)#15
     + 305 x(16)#16 + 398 x(17)#17 + 178 x(18)#18 + 873 x(19)#19 + 726 x(20)#20
     + 10 x(21)#21 + 14 x(22)#22 + 112 x(23)#23 + 862 x(24)#24 + 471 x(25)#25
     + 896 x(26)#26 + 340 x(27)#27 + 969 x(28)#28 + 929 x(29)#29 + 671 x(30)#30
     + 933 x(31)#31 + 22 x(32)#32 + 862 x(33)#33 + 729 x(34)#34 + 339 x(35)#35
     + 465 x(36)#36 + 56 x(37)#37 + 619 x(38)#38 + 420 x(39)#39 + 866 x(40)#40
     + 844 x(41)#41 + 390 x(42)#42 + 27 x(43)#43 + 154 x(44)#44 + 987 x(45)#45
     + 834 x(46)#46 + 167 x(47)#47 + 299 x(48)#48 + 627 x(49)#49 + 975 x(50)#50
     + 49 x(51)#51 + 951 x(52)#52 + 597 x(53)#53 + 920 x(54)#54 + 451 x(55)#55
     + 812 x(56)#56 + 901 x(57)#57 + 942 x(58)#58 + 64 x(59)#59 + 586 x(60)#60
     + 292 x(61)#61 + 381 x(62)#62 + 32 x(63)#63 + 93 x(64)#64 + 573 x(65)#65
     + 457 x(66)#66 + 880 x(67)#67 + 737 x(68)#68 + 793 x(69)#69 + 271 x(70)#70
     + 683 x(71)#71 + 441 x(72)#72 + 274 x(73)#73 + 259 x(74)#74 + 939 x(75)#75
     + 829 x(76)#76 + 114 x(77)#77 + 660 x(78)#78 + 565 x(79)#79 + 879 x(80)#80
     + 218 x(81)#81 + 737 x(82)#82 + 407 x(83)#83 + 123 x(84)#84 + 153 x(85)#85
     + 10 x(86)#86 + 419 x(87)#87 + 74 x(88)#88 + 114 x(89)#89 + 143 x(90)#90
     + 169 x(91)#91 + 949 x(92)#92 + 869 x(93)#93 + 377 x(94)#94 + 430 x(95)#95
     + 170 x(96)#96 + 161 x(97)#97 + 82 x(98)#98 + 879 x(99)#99
     + 905 x(100)#100 + 286 x(101)#101 + 285 x(102)#102 + 155 x(103)#103
     + 603 x(104)#104 + 372 x(105)#105 + 853 x(106)#106 + 675 x(107)#107
     + 734 x(108)#108 + 715 x(109)#109 + 655 x(110)#110 + 123 x(111)#111
     + 115 x(112)#112 + 145 x(113)#113 + 127 x(114)#114 + 973 x(115)#115
     + 964 x(116)#116 + 566 x(117)#117 + 572 x(118)#118 + 714 x(119)#119
     + 310 x(120)#120 + 631 x(121)#121 + 322 x(122)#122 + 984 x(123)#123
     + 123 x(124)#124 + 300 x(125)#125 + 322 x(126)#126 + 265 x(127)#127
     + 244 x(128)#128 + 570 x(129)#129 + 556 x(130)#130 + 617 x(131)#131
     + 721 x(132)#132 + 200 x(133)#133 + 120 x(134)#134 + 990 x(135)#135
     + 88 x(136)#136 + 10 x(137)#137 + 439 x(138)#138 + 669 x(139)#139
     + 814 x(140)#140 + 822 x(141)#141 + 733 x(142)#142 + 889 x(143)#143
     + 225 x(144)#144 + 787 x(145)#145 + 458 x(146)#146 + 978 x(147)#147
     + 721 x(148)#148 + 506 x(149)#149 + 389 x(150)#150 + 782 x(151)#151
     + 26 x(152)#152 + 140 x(153)#153 + 880 x(154)#154 + 883 x(155)#155
     + 163 x(156)#156 + 242 x(157)#157 + 217 x(158)#158 + 264 x(159)#159
     + 451 x(160)#160 + 609 x(161)#161 + 14 x(162)#162 + 46 x(163)#163
     + 857 x(164)#164 + 214 x(165)#165 + 422 x(166)#166 + 234 x(167)#167
     + 168 x(168)#168 + 227 x(169)#169 + 623 x(170)#170 + 632 x(171)#171
     + 164 x(172)#172 + 716 x(173)#173 + 139 x(174)#174 + 806 x(175)#175
     + 728 x(176)#176 + 917 x(177)#177 + 154 x(178)#178 + 398 x(179)#179
     + 258 x(180)#180 + 968 x(181)#181 + 510 x(182)#182 + 737 x(183)#183
     + 261 x(184)#184 + 31 x(185)#185 + 169 x(186)#186 + 379 x(187)#187
     + 277 x(188)#188 + 670 x(189)#189 + 486 x(190)#190 + 515 x(191)#191
     + 928 x(192)#192 + 558 x(193)#193 + 473 x(194)#194 + 398 x(195)#195
     + 441 x(196)#196 + 864 x(197)#197 + 640 x(198)#198 + 65 x(199)#199
     + 652 x(200)#200 + 464 x(201)#201 + 894 x(202)#202 + 715 x(203)#203
     + 408 x(204)#204 + 765 x(205)#205 + 316 x(206)#206 + 108 x(207)#207
     + 680 x(208)#208 + 249 x(209)#209 + 54 x(210)#210 + 648 x(211)#211
     + 432 x(212)#212 + 957 x(213)#213 + 783 x(214)#214 + 281 x(215)#215
     + 663 x(216)#216 + 563 x(217)#217 + 348 x(218)#218 + 264 x(219)#219
     + 433 x(220)#220 + 40 x(221)#221 + 120 x(222)#222 + 697 x(223)#223
     + 186 x(224)#224 + 791 x(225)#225 + 61 x(226)#226 + 345 x(227)#227
     + 289 x(228)#228 + 399 x(229)#229 + 717 x(230)#230 + 945 x(231)#231
     + 490 x(232)#232 + 328 x(233)#233 + 924 x(234)#234 + 584 x(235)#235
     + 786 x(236)#236 + 583 x(237)#237 + 270 x(238)#238 + 689 x(239)#239
     + 513 x(240)#240 + 895 x(241)#241 + 112 x(242)#242 + 426 x(243)#243
     + 553 x(244)#244 + 36 x(245)#245 + 15 x(246)#246 + 711 x(247)#247
     + 416 x(248)#248 + 925 x(249)#249 <= 30151
 c4: 762 x(0)#0 + 306 x(1)#1 + 215 x(2)#2 + 665 x(3)#3 + 840 x(4)#4
     + 388 x(5)#5 + 40 x(6)#6 + 159 x(7)#7 + 785 x(8)#8 + 535 x(9)#9
     + 906 x(10)#10 + 386 x(11)#11 + 863 x(12)#12 + 3 x(13)#13 + 636 x(14)#14
     + 827 x(15)#15 + 960 x(16)#16 + 341 x(17)#17 + 299 x(18)#18 + 877 x(19)#19
     + 202 x(20)#20 + 503 x(21)#21 + 659 x(22)#22 + 902 x(23)#23 + 157 x(24)#24
     + 866 x(25)#25 + 855 x(26)#26 + 778 x(27)#27 + 279 x(28)#28 + 684 x(29)#29
     + 545 x(30)#30 + 479 x(31)#31 + 635 x(32)#32 + 481 x(33)#33 + 968 x(34)#34
     + 105 x(35)#35 + 398 x(36)#36 + 218 x(37)#37 + 612 x(38)#38 + 139 x(39)#39
     + 303 x(40)#40 + 360 x(41)#41 + 19 x(42)#42 + 714 x(43)#43 + 11 x(44)#44
     + 423 x(45)#45 + 185 x(46)#46 + 674 x(47)#47 + 435 x(48)#48 + 603 x(49)#49
     + 330 x(50)#50 + 596 x(51)#51 + 112 x(52)#52 + 628 x(53)#53 + 927 x(54)#54
     + 950 x(55)#55 + 672 x(56)#56 + 81 x(57)#57 + 257 x(58)#58 + 81 x(59)#59
     + 679 x(60)#60 + 678 x(61)#61 + 376 x(62)#62 + 753 x(63)#63 + 70 x(64)#64
     + 509 x(65)#65 + 187 x(66)#66 + 703 x(67)#67 + 42 x(68)#68 + 180 x(69)#69
     + 862 x(70)#70 + 149 x(71)#71 + 916 x(72)#72 + 420 x(73)#73 + 276 x(74)#74
     + 518 x(75)#75 + 900 x(76)#76 + 518 x(77)#77 + 233 x(78)#78 + 444 x(79)#79
     + 357 x(80)#80 + 659 x(81)#81 + 254 x(82)#82 + 478 x(83)#83 + 263 x(84)#84
     + 738 x(85)#85 + 196 x(86)#86 + 656 x(87)#87 + 479 x(88)#88 + 928 x(89)#89
     + 135 x(90)#90 + 857 x(91)#91 + 46 x(92)#92 + 70 x(93)#93 + 847 x(94)#94
     + 138 x(95)#95 + 516 x(96)#96 + 549 x(97)#97 + 824 x(98)#98 + 123 x(99)#99
     + 515 x(100)#100 + 859 x(101)#101 + 284 x(102)#102 + 237 x(103)#103
     + 43 x(104)#104 + 59 x(105)#105 + 781 x(106)#106 + 487 x(107)#107
     + 992 x(108)#108 + 190 x(109)#109 + 717 x(110)#110 + 418 x(111)#111
     + 918 x(112)#112 + 843 x(113)#113 + 137 x(114)#114 + 347 x(115)#115
     + 416 x(116)#116 + 95 x(117)#117 + 114 x(118)#118 + 803 x(119)#119
     + 587 x(120)#120 + 5 x(121)#121 + 321 x(122)#122 + 569 x(123)#123
     + 477 x(124)#124 + 828 x(125)#125 + 661 x(126)#126 + 34 x(127)#127
     + 605 x(128)#128 + 43 x(129)#129 + 55 x(130)#130 + 814 x(131)#131
     + 825 x(132)#132 + 733 x(133)#133 + 752 x(134)#134 + 386 x(135)#135
     + 210 x(136)#136 + 597 x(137)#137 + 327 x(138)#138 + 860 x(139)#139
     + 784 x(140)#140 + 936 x(141)#141 + 180 x(142)#142 + 275 x(143)#143
     + 653 x(144)#144 + 164 x(145)#145 + 963 x(146)#146 + 506 x(147)#147
     + 58 x(148)#148 + 92 x(149)#149 + 705 x(150)#150 + 808 x(151)#151
     + 347 x(152)#152 + 817 x(153)#153 + 336 x(154)#154 + 465 x(155)#155
     + 332 x(156)#156 + 208 x(157)#157 + 899 x(158)#158 + 170 x(159)#159
     + 80 x(160)#160 + 870 x(161)#161 + 208 x(162)#162 + 471 x(163)#163
     + 246 x(164)#164 + 571 x(165)#165 + 672 x(166)#166 + 516 x(167)#167
     + 362 x(168)#168 + 329 x(169)#169 + 160 x(170)#170 + 894 x(171)#171
     + 732 x(172)#172 + 380 x(173)#173 + 933 x(174)#174 + 95 x(175)#175
     + 747 x(176)#176 + 374 x(177)#177 + 938 x(178)#178 + 347 x(179)#179
     + 247 x(180)#180 + 945 x(181)#181 + 297 x(182)#182 + 790 x(183)#183
     + 529 x(184)#184 + 684 x(185)#185 + 387 x(186)#186 + 578 x(187)#187
     + 3 x(188)#188 + 666 x(189)#189 + 407 x(190)#190 + 977 x(191)#191
     + 566 x(192)#192 + 885 x(193)#193 + 835 x(194)#194 + 879 x(195)#195
     + 544 x(196)#196 + 805 x(197)#197 + 758 x(198)#198 + 644 x(199)#199
     + 91 x(200)#200 + 761 x(201)#201 + 218 x(202)#202 + 396 x(203)#203
     + 627 x(204)#204 + 969 x(205)#205 + 666 x(206)#206 + 895 x(207)#207
     + 799 x(208)#208 + 969 x(209)#209 + 960 x(210)#210 + 279 x(211)#211
     + 229 x(212)#212 + 230 x(213)#213 + 755 x(214)#214 + 502 x(215)#215
     + 11 x(216)#216 + 598 x(217)#217 + 369 x(218)#218 + 723 x(219)#219
     + 609 x(220)#220 + 714 x(221)#221 + 875 x(222)#222 + 56 x(223)#223
     + 335 x(224)#224 + 458 x(225)#225 + 177 x(226)#226 + 605 x(227)#227
     + 520 x(228)#228 + 924 x(229)#229 + 329 x(230)#230 + 794 x(231)#231
     + 564 x(232)#232 + 139 x(233)#233 + 356 x(234)#234 + 726 x(235)#235
     + 454 x(236)#236 + 513 x(237)#237 + 67 x(238)#238 + 91 x(239)#239
     + 986 x(240)#240 + 885 x(241)#241 + 843 x(242)#242 + 726 x(243)#243
     + 821 x(244)#244 + 884 x(245)#245 + 85 x(246)#246 + 631 x(247)#247
     + 553 x(248)#248 + 295 x(249)#249 <= 31550
 c5: 173 x(0)#0 + 37 x(1)#1 + 767 x(2)#2 + 919 x(3)#3 + 829 x(4)#4 + 638 x(5)#5
     + 3 x(6)#6 + 627 x(7)#7 + 161 x(8)#8 + 465 x(9)#9 + 470 x(10)#10
     + 542 x(11)#11 + 10 x(12)#12 + 548 x(13)#13 + 134 x(14)#14 + 921 x(15)#15
     + 190 x(16)#16 + 493 x(17)#17 + 461 x(18)#18 + 947 x(19)#19 + 198 x(20)#20
     + 34 x(21)#21 + 132 x(22)#22 + 570 x(23)#23 + 397 x(24)#24 + 966 x(25)#25
     + 566 x(26)#26 + 433 x(27)#27 + 529 x(28)#28 + 33 x(29)#29 + 796 x(30)#30
     + 719 x(31)#31 + 836 x(32)#32 + 671 x(33)#33 + 124 x(34)#34 + 283 x(35)#35
     + 103 x(36)#36 + 892 x(37)#37 + 369 x(38)#38 + 714 x(39)#39 + 939 x(40)#40
     + 364 x(41)#41 + 185 x(42)#42 + 100 x(43)#43 + 727 x(44)#44 + 269 x(45)#45
     + 496 x(46)#46 + 73 x(47)#47 + 721 x(48)#48 + 624 x(49)#49 + 696 x(50)#50
     + 495 x(51)#51 + 196 x(52)#52 + 940 x(53)#53 + 477 x(54)#54 + 680 x(55)#55
     + 581 x(56)#56 + 993 x(57)#57 + 737 x(58)#58 + 765 x(59)#59 + 702 x(60)#60
     + 965 x(61)#61 + 796 x(62)#62 + 558 x(63)#63 + 87 x(64)#64 + 793 x(65)#65
     + 594 x(66)#66 + 861 x(67)#67 + 832 x(68)#68 + 921 x(69)#69 + 578 x(70)#70
     + 245 x(71)#71 + 815 x(72)#72 + 453 x(73)#73 + 722 x(74)#74 + 165 x(75)#75
     + 18 x(76)#76 + 106 x(77)#77 + 764 x(78)#78 + 4 x(79)#79 + 403 x(80)#80
     + 600 x(81)#81 + 934 x(82)#82 + 812 x(83)#83 + 966 x(84)#84 + 498 x(85)#85
     + 372 x(86)#86 + 847 x(87)#87 + 580 x(88)#88 + 119 x(89)#89 + 942 x(90)#90
     + 594 x(91)#91 + 525 x(92)#92 + 83 x(93)#93 + 953 x(94)#94 + 476 x(95)#95
     + 879 x(96)#96 + 660 x(97)#97 + 583 x(98)#98 + 68 x(99)#99
     + 761 x(100)#100 + 693 x(101)#101 + 190 x(102)#102 + 189 x(103)#103
     + 318 x(104)#104 + 973 x(105)#105 + 632 x(106)#106 + 667 x(107)#107
     + 186 x(108)#108 + 757 x(109)#109 + 160 x(110)#110 + 635 x(111)#111
     + 686 x(112)#112 + 916 x(113)#113 + 447 x(114)#114 + 76 x(115)#115
     + 19 x(116)#116 + 259 x(117)#117 + 282 x(118)#118 + 679 x(119)#119
     + 496 x(120)#120 + 743 x(121)#121 + 212 x(122)#122 + 295 x(123)#123
     + 524 x(124)#124 + 977 x(125)#125 + 546 x(126)#126 + 880 x(127)#127
     + 83 x(128)#128 + 544 x(129)#129 + 995 x(130)#130 + 914 x(131)#131
     + 168 x(132)#132 + 881 x(133)#133 + 108 x(134)#134 + 794 x(135)#135
     + 894 x(136)#136 + 643 x(137)#137 + 269 x(138)#138 + 589 x(139)#139
     + 679 x(140)#140 + 710 x(141)#141 + 324 x(142)#142 + 556 x(143)#143
     + 401 x(144)#144 + 621 x(145)#145 + 773 x(146)#146 + 893 x(147)#147
     + 475 x(148)#148 + 247 x(149)#149 + 86 x(150)#150 + 527 x(151)#151
     + 659 x(152)#152 + 210 x(153)#153 + 148 x(154)#154 + 532 x(155)#155
     + 229 x(156)#156 + 410 x(157)#157 + 40 x(158)#158 + 852 x(159)#159
     + 563 x(160)#160 + 499 x(161)#161 + 999 x(162)#162 + 533 x(163)#163
     + 407 x(164)#164 + 556 x(165)#165 + 653 x(166)#166 + 517 x(167)#167
     + 985 x(168)#168 + 504 x(169)#169 + 711 x(170)#170 + 811 x(171)#171
     + 177 x(172)#172 + 692 x(173)#173 + 474 x(174)#174 + 408 x(175)#175
     + 372 x(176)#176 + 10 x(177)#177 + 246 x(178)#178 + 161 x(179)#179
     + 687 x(180)#180 + 351 x(181)#181 + 778 x(182)#182 + 953 x(183)#183
     + 316 x(184)#184 + 486 x(185)#185 + 78 x(186)#186 + 97 x(187)#187
     + 775 x(188)#188 + 539 x(189)#189 + 243 x(190)#190 + 751 x(191)#191
     + 567 x(192)#192 + 368 x(193)#193 + 795 x(194)#194 + 887 x(195)#195
     + 437 x(196)#196 + 959 x(197)#197 + 24 x(198)#198 + 20 x(199)#199
     + 182 x(200)#200 + 147 x(201)#201 + 766 x(202)#202 + 804 x(203)#203
     + 505 x(204)#204 + 599 x(205)#205 + 240 x(206)#206 + 503 x(207)#207
     + 575 x(208)#208 + 3 x(209)#209 + 395 x(210)#210 + 670 x(211)#211
     + 381 x(212)#212 + 395 x(213)#213 + 996 x(214)#214 + 492 x(215)#215
     + 171 x(216)#216 + 22 x(217)#217 + 362 x(218)#218 + 373 x(219)#219
     + 138 x(220)#220 + 694 x(221)#221 + 75 x(222)#222 + 912 x(223)#223
     + 567 x(224)#224 + 540 x(225)#225 + 311 x(226)#226 + 294 x(227)#227
     + 754 x(228)#228 + 497 x(229)#229 + 767 x(230)#230 + 712 x(231)#231
     + 301 x(232)#232 + 949 x(233)#233 + 812 x(234)#234 + 866 x(235)#235
     + 253 x(236)#236 + 424 x(237)#237 + 135 x(238)#238 + 129 x(239)#239
     + 211 x(240)#240 + 465 x(241)#241 + 315 x(242)#242 + 269 x(243)#243
     + 359 x(244)#244 + 602 x(245)#245 + 492 x(246)#246 + 423 x(247)#247
     + 384 x(248)#248 + 584 x(249)#249 <= 31572
Bounds
 0 <= x(0)#0 <= 1
 0 <= x(1)#1 <= 1
 0 <= x(2)#2 <= 1
 0 <= x(3)#3 <= 1
 0 <= x(4)#4 <= 1
 0 <= x(5)#5 <= 1
 0 <= x(6)#6 <= 1
 0 <= x(7)#7 <= 1
 0 <= x(8)#8 <= 1
 0 <= x(9)#9 <= 1
 0 <= x(10)#10 <= 1
 0 <= x(11)#11 <= 1
 0 <= x(12)#12 <= 1
 0 <= x(13)#13 <= 1
 0 <= x(14)#14 <= 1
 0 <= x(15)#15 <= 1
 0 <= x(16)#16 <= 1
 0 <= x(17)#17 <= 1
 0 <= x(18)#18 <= 1
 0 <= x(19)#19 <= 1
 0 <= x(20)#20 <= 1
 0 <= x(21)#21 <= 1
 0 <= x(22)#22 <= 1
 0 <= x(23)#23 <= 1
 0 <= x(24)#24 <= 1
 0 <= x(25)#25 <= 1
 0 <= x(26)#26 <= 1
 0 <= x(27)#27 <= 1
 0 <= x(28)#28 <= 1
 0 <= x(29)#29 <= 1
 0 <= x(30)#30 <= 1
 0 <= x(31)#31 <= 1
 0 <= x(32)#32 <= 1
 0 <= x(33)#33 <= 1
 0 <= x(34)#34 <= 1
 0 <= x(35)#35 <= 1
 0 <= x(36)#36 <= 1
 0 <= x(37)#37 <= 1
 0 <= x(38)#38 <= 1
 0 <= x(39)#39 <= 1
 0 <= x(40)#40 <= 1
 0 <= x(41)#41 <= 1
 0 <= x(42)#42 <= 1
 0 <= x(43)#43 <= 1
 0 <= x(44)#44 <= 1
 0 <= x(45)#45 <= 1
 0 <= x(46)#46 <= 1
 0 <= x(47)#47 <= 1
 0 <= x(48)#48 <= 1
 0 <= x(49)#49 <= 1
 0 <= x(50)#50 <= 1
 0 <= x(51)#51 <= 1
 0 <= x(52)#52 <= 1
 0 <= x(53)#53 <= 1
 0 <= x(54)#54 <= 1
 0 <= x(55)#55 <= 1
 0 <= x(56)#56 <= 1
 0 <= x(57)#57 <= 1
 0 <= x(58)#58 <= 1
 0 <= x(59)#59 <= 1
 0 <= x(60)#60 <= 1
 0 <= x(61)#61 <= 1
 0 <= x(62)#62 <= 1
 0 <= x(63)#63 <= 1
 0 <= x(64)#64 <= 1
 0 <= x(65)#65 <= 1
 0 <= x(66)#66 <= 1
 0 <= x(67)#67 <= 1
 0 <= x(68)#68 <= 1
 0 <= x(69)#69 <= 1
 0 <= x(70)#70 <= 1
 0 <= x(71)#71 <= 1
 0 <= x(72)#72 <= 1
 0 <= x(73)#73 <= 1
 0 <= x(74)#74 <= 1
 0 <= x(75)#75 <= 1
 0 <= x(76)#76 <= 1
 0 <= x(77)#77 <= 1
 0 <= x(78)#78 <= 1
 0 <= x(79)#79 <= 1
 0 <= x(80)#80 <= 1
 0 <= x(81)#81 <= 1
 0 <= x(82)#82 <= 1
 0 <= x(83)#83 <= 1
 0 <= x(84)#84 <= 1
 0 <= x(85)#85 <= 1
 0 <= x(86)#86 <= 1
 0 <= x(87)#87 <= 1
 0 <= x(88)#88 <= 1
 0 <= x(89)#89 <= 1
 0 <= x(90)#90 <= 1
 0 <= x(91)#91 <= 1
 0 <= x(92)#92 <= 1
 0 <= x(93)#93 <= 1
 0 <= x(94)#94 <= 1
 0 <= x(95)#95 <= 1
 0 <= x(96)#96 <= 1
 0 <= x(97)#97 <= 1
 0 <= x(98)#98 <= 1
 0 <= x(99)#99 <= 1
 0 <= x(100)#100 <= 1
 0 <= x(101)#101 <= 1
 0 <= x(102)#102 <= 1
 0 <= x(103)#103 <= 1
 0 <= x(104)#104 <= 1
 0 <= x(105)#105 <= 1
 0 <= x(106)#106 <= 1
 0 <= x(107)#107 <= 1
 0 <= x(108)#108 <= 1
 0 <= x(109)#109 <= 1
 0 <= x(110)#110 <= 1
 0 <= x(111)#111 <= 1
 0 <= x(112)#112 <= 1
 0 <= x(113)#113 <= 1
 0 <= x(114)#114 <= 1
 0 <= x(115)#115 <= 1
 0 <= x(116)#116 <= 1
 0 <= x(117)#117 <= 1
 0 <= x(118)#118 <= 1
 0 <= x(119)#119 <= 1
 0 <= x(120)#120 <= 1
 0 <= x(121)#121 <= 1
 0 <= x(122)#122 <= 1
 0 <= x(123)#123 <= 1
 0 <= x(124)#124 <= 1
 0 <= x(125)#125 <= 1
 0 <= x(126)#126 <= 1
 0 <= x(127)#127 <= 1
 0 <= x(128)#128 <= 1
 0 <= x(129)#129 <= 1
 0 <= x(130)#130 <= 1
 0 <= x(131)#131 <= 1
 0 <= x(132)#132 <= 1
 0 <= x(133)#133 <= 1
 0 <= x(134)#134 <= 1
 0 <= x(135)#135 <= 1
 0 <= x(136)#136 <= 1
 0 <= x(137)#137 <= 1
 0 <= x(138)#138 <= 1
 0 <= x(139)#139 <= 1
 0 <= x(140)#140 <= 1
 0 <= x(141)#141 <= 1
 0 <= x(142)#142 <= 1
 0 <= x(143)#143 <= 1
 0 <= x(144)#144 <= 1
 0 <= x(145)#145 <= 1
 0 <= x(146)#146 <= 1
 0 <= x(147)#147 <= 1
 0 <= x(148)#148 <= 1
 0 <= x(149)#149 <= 1
 0 <= x(150)#150 <= 1
 0 <= x(151)#151 <= 1
 0 <= x(152)#152 <= 1
 0 <= x(153)#153 <= 1
 0 <= x(154)#154 <= 1
 0 <= x(155)#155 <= 1
 0 <= x(156)#156 <= 1
 0 <= x(157)#157 <= 1
 0 <= x(158)#158 <= 1
 0 <= x(159)#159 <= 1
 0 <= x(160)#160 <= 1
 0 <= x(161)#161 <= 1
 0 <= x(162)#162 <= 1
 0 <= x(163)#163 <= 1
 0 <= x(164)#164 <= 1
 0 <= x(165)#165 <= 1
 0 <= x(166)#166 <= 1
 0 <= x(167)#167 <= 1
 0 <= x(168)#168 <= 1
 0 <= x(169)#169 <= 1
 0 <= x(170)#170 <= 1
 0 <= x(171)#171 <= 1
 0 <= x(172)#172 <= 1
 0 <= x(173)#173 <= 1
 0 <= x(174)#174 <= 1
 0 <= x(175)#175 <= 1
 0 <= x(176)#176 <= 1
 0 <= x(177)#177 <= 1
 0 <= x(178)#178 <= 1
 0 <= x(179)#179 <= 1
 0 <= x(180)#180 <= 1
 0 <= x(181)#181 <= 1
 0 <= x(182)#182 <= 1
 0 <= x(183)#183 <= 1
 0 <= x(184)#184 <= 1
 0 <= x(185)#185 <= 1
 0 <= x(186)#186 <= 1
 0 <= x(187)#187 <= 1
 0 <= x(188)#188 <= 1
 0 <= x(189)#189 <= 1
 0 <= x(190)#190 <= 1
 0 <= x(191)#191 <= 1
 0 <= x(192)#192 <= 1
 0 <= x(193)#193 <= 1
 0 <= x(194)#194 <= 1
 0 <= x(195)#195 <= 1
 0 <= x(196)#196 <= 1
 0 <= x(197)#197 <= 1
 0 <= x(198)#198 <= 1
 0 <= x(199)#199 <= 1
 0 <= x(200)#200 <= 1
 0 <= x(201)#201 <= 1
 0 <= x(202)#202 <= 1
 0 <= x(203)#203 <= 1
 0 <= x(204)#204 <= 1
 0 <= x(205)#205 <= 1
 0 <= x(206)#206 <= 1
 0 <= x(207)#207 <= 1
 0 <= x(208)#208 <= 1
 0 <= x(209)#209 <= 1
 0 <= x(210)#210 <= 1
 0 <= x(211)#211 <= 1
 0 <= x(212)#212 <= 1
 0 <= x(213)#213 <= 1
 0 <= x(214)#214 <= 1
 0 <= x(215)#215 <= 1
 0 <= x(216)#216 <= 1
 0 <= x(217)#217 <= 1
 0 <= x(218)#218 <= 1
 0 <= x(219)#219 <= 1
 0 <= x(220)#220 <= 1
 0 <= x(221)#221 <= 1
 0 <= x(222)#222 <= 1
 0 <= x(223)#223 <= 1
 0 <= x(224)#224 <= 1
 0 <= x(225)#225 <= 1
 0 <= x(226)#226 <= 1
 0 <= x(227)#227 <= 1
 0 <= x(228)#228 <= 1
 0 <= x(229)#229 <= 1
 0 <= x(230)#230 <= 1
 0 <= x(231)#231 <= 1
 0 <= x(232)#232 <= 1
 0 <= x(233)#233 <= 1
 0 <= x(234)#234 <= 1
 0 <= x(235)#235 <= 1
 0 <= x(236)#236 <= 1
 0 <= x(237)#237 <= 1
 0 <= x(238)#238 <= 1
 0 <= x(239)#239 <= 1
 0 <= x(240)#240 <= 1
 0 <= x(241)#241 <= 1
 0 <= x(242)#242 <= 1
 0 <= x(243)#243 <= 1
 0 <= x(244)#244 <= 1
 0 <= x(245)#245 <= 1
 0 <= x(246)#246 <= 1
 0 <= x(247)#247 <= 1
 0 <= x(248)#248 <= 1
 0 <= x(249)#249 <= 1
Generals
 x(0)#0  x(1)#1  x(2)#2  x(3)#3  x(4)#4  x(5)#5  x(6)#6  x(7)#7  x(8)#8 
 x(9)#9  x(10)#10  x(11)#11  x(12)#12  x(13)#13  x(14)#14  x(15)#15  x(16)#16 
 x(17)#17  x(18)#18  x(19)#19  x(20)#20  x(21)#21  x(22)#22  x(23)#23 
 x(24)#24  x(25)#25  x(26)#26  x(27)#27  x(28)#28  x(29)#29  x(30)#30 
 x(31)#31  x(32)#32  x(33)#33  x(34)#34  x(35)#35  x(36)#36  x(37)#37 
 x(38)#38  x(39)#39  x(40)#40  x(41)#41  x(42)#42  x(43)#43  x(44)#44 
 x(45)#45  x(46)#46  x(47)#47  x(48)#48  x(49)#49  x(50)#50  x(51)#51 
 x(52)#52  x(53)#53  x(54)#54  x(55)#55  x(56)#56  x(57)#57  x(58)#58 
 x(59)#59  x(60)#60  x(61)#61  x(62)#62  x(63)#63  x(64)#64  x(65)#65 
 x(66)#66  x(67)#67  x(68)#68  x(69)#69  x(70)#70  x(71)#71  x(72)#72 
 x(73)#73  x(74)#74  x(75)#75  x(76)#76  x(77)#77  x(78)#78  x(79)#79 
 x(80)#80  x(81)#81  x(82)#82  x(83)#83  x(84)#84  x(85)#85  x(86)#86 
 x(87)#87  x(88)#88  x(89)#89  x(90)#90  x(91)#91  x(92)#92  x(93)#93 
 x(94)#94  x(95)#95  x(96)#96  x(97)#97  x(98)#98  x(99)#99  x(100)#100 
 x(101)#101  x(102)#102  x(103)#103  x(104)#104  x(105)#105  x(106)#106 
 x(107)#107  x(108)#108  x(109)#109  x(110)#110  x(111)#111  x(112)#112 
 x(113)#113  x(114)#114  x(115)#115  x(116)#116  x(117)#117  x(118)#118 
 x(119)#119  x(120)#120  x(121)#121  x(122)#122  x(123)#123  x(124)#124 
 x(125)#125  x(126)#126  x(127)#127  x(128)#128  x(129)#129  x(130)#130 
 x(131)#131  x(132)#132  x(133)#133  x(134)#134  x(135)#135  x(136)#136 
 x(137)#137  x(138)#138  x(139)#139  x(140)#140  x(141)#141  x(142)#142 
 x(143)#143  x(144)#144  x(145)#145  x(146)#146  x(147)#147  x(148)#148 
 x(149)#149  x(150)#150  x(151)#151  x(152)#152  x(153)#153  x(154)#154 
 x(155)#155  x(156)#156  x(157)#157  x(158)#158  x(159)#159  x(160)#160 
 x(161)#161  x(162)#162  x(163)#163  x(164)#164  x(165)#165  x(166)#166 
 x(167)#167  x(168)#168  x(169)#169  x(170)#170  x(171)#171  x(172)#172 
 x(173)#173  x(174)#174  x(175)#175  x(176)#176  x(177)#177  x(178)#178 
 x(179)#179  x(180)#180  x(181)#181  x(182)#182  x(183)#183  x(184)#184 
 x(185)#185  x(186)#186  x(187)#187  x(188)#188  x(189)#189  x(190)#190 
 x(191)#191  x(192)#192  x(193)#193  x(194)#194  x(195)#195  x(196)#196 
 x(197)#197  x(198)#198  x(199)#199  x(200)#200  x(201)#201  x(202)#202 
 x(203)#203  x(204)#204  x(205)#205  x(206)#206  x(207)#207  x(208)#208 
 x(209)#209  x(210)#210  x(211)#211  x(212)#212  x(213)#213  x(214)#214 
 x(215)#215  x(216)#216  x(217)#217  x(218)#218  x(219)#219  x(220)#220 
 x(221)#221  x(222)#222  x(223)#223  x(224)#224  x(225)#225  x(226)#226 
 x(227)#227  x(228)#228  x(229)#229  x(230)#230  x(231)#231  x(232)#232 
 x(233)#233  x(234)#234  x(235)#235  x(236)#236  x(237)#237  x(238)#238 
 x(239)#239  x(240)#240  x(241)#241  x(242)#242  x(243)#243  x(244)#244 
 x(245)#245  x(246)#246  x(247)#247  x(248)#248  x(249)#249 
End
